words_hard_train/9644.qaiger
aag 137 24 0 1 113
2
4
12
14
18
20
32
34
46
48
60
62
74
76
88
90
108
110
114
122
128
134
148
160
275
6 2 4
8 3 5
10 7 9
16 12 14
22 19 21
24 18 20
26 23 25
28 16 26
30 29 25
36 33 35
38 32 34
40 37 39
42 31 40
44 43 39
50 47 49
52 46 48
54 51 53
56 45 54
58 57 53
64 61 63
66 60 62
68 65 67
70 59 68
72 71 67
78 75 77
80 74 76
82 79 81
84 73 82
86 85 81
92 89 91
94 88 90
96 93 95
98 87 96
100 99 95
102 11 101
104 10 100
106 103 105
112 109 111
116 113 114
118 112 115
120 117 119
124 120 123
126 124 111
130 126 129
132 118 129
136 133 134
138 132 135
140 137 139
142 140 108
144 130 142
146 138 123
150 147 148
152 146 149
154 151 153
156 144 154
158 157 153
162 159 160
164 158 161
166 163 165
168 107 166
170 139 122
172 171 147
174 72 83
176 175 85
178 172 177
180 86 97
182 181 99
184 183 154
186 179 185
188 17 26
190 189 110
192 13 15
194 191 193
196 194 109
198 108 110
200 199 113
202 17 27
204 201 203
206 197 205
208 207 29
210 30 41
212 211 43
214 213 120
216 208 215
218 212 121
220 217 219
222 44 55
224 223 57
226 119 128
228 227 133
230 225 228
232 221 231
234 224 229
236 233 235
238 58 69
240 239 71
242 241 140
244 237 243
246 240 141
248 245 247
250 173 176
252 248 251
254 186 253
256 254 156
258 168 257
260 106 167
262 256 260
264 259 263
266 182 155
268 255 267
270 268 157
272 270 261
274 264 273
i0 1 x2[7]
i1 2 y2[7]
i2 1 x2[0]
i3 2 y2[0]
i4 1 x2[1]
i5 2 y2[1]
i6 1 x2[2]
i7 2 y2[2]
i8 1 x2[3]
i9 2 y2[3]
i10 1 x2[4]
i11 2 y2[4]
i12 1 x2[5]
i13 2 y2[5]
i14 1 x2[6]
i15 2 y2[6]
i16 2 y1[0]
i17 2 y1[1]
i18 2 y1[2]
i19 2 y1[5]
i20 2 y1[3]
i21 2 y1[4]
i22 2 y1[6]
i23 2 y1[7]
o0 bv[0]
c
simplified
  <
    subtract
      1 x2
      unary minus
        2 y2
    subtract
      1
      2 y1
