words_hard_train/9644.qaiger.qdimacs
p cnf 137 340
a 1 37 6 9 44 16 23 30 0
e 2 3 4 5 7 8 10 11 12 13 14 15 17 18 19 20 21 22 24 25 26 27 28 29 31 32 33 34 35 36 38 39 40 41 42 43 45 46 47 48 49 50 51 52 53 54 55 56 57 58 59 60 61 62 63 64 65 66 67 68 69 70 71 72 73 74 75 76 77 78 79 80 81 82 83 84 85 86 87 88 89 90 91 92 93 94 95 96 97 98 99 100 101 102 103 104 105 106 107 108 109 110 111 112 113 114 115 116 117 118 119 120 121 122 123 124 125 126 127 128 129 130 131 132 133 134 135 136 137 0
-1 -2 3 0
1 -3 0
2 -3 0
1 2 4 0
-1 -4 0
-2 -4 0
3 4 5 0
-3 -5 0
-4 -5 0
-6 -7 8 0
6 -8 0
7 -8 0
9 10 11 0
-9 -11 0
-10 -11 0
-9 -10 12 0
9 -12 0
10 -12 0
11 12 13 0
-11 -13 0
-12 -13 0
-8 -13 14 0
8 -14 0
13 -14 0
14 12 15 0
-14 -15 0
-12 -15 0
16 17 18 0
-16 -18 0
-17 -18 0
-16 -17 19 0
16 -19 0
17 -19 0
18 19 20 0
-18 -20 0
-19 -20 0
15 -20 21 0
-15 -21 0
20 -21 0
21 19 22 0
-21 -22 0
-19 -22 0
23 24 25 0
-23 -25 0
-24 -25 0
-23 -24 26 0
23 -26 0
24 -26 0
25 26 27 0
-25 -27 0
-26 -27 0
22 -27 28 0
-22 -28 0
27 -28 0
28 26 29 0
-28 -29 0
-26 -29 0
30 31 32 0
-30 -32 0
-31 -32 0
-30 -31 33 0
30 -33 0
31 -33 0
32 33 34 0
-32 -34 0
-33 -34 0
29 -34 35 0
-29 -35 0
34 -35 0
35 33 36 0
-35 -36 0
-33 -36 0
37 38 39 0
-37 -39 0
-38 -39 0
-37 -38 40 0
37 -40 0
38 -40 0
39 40 41 0
-39 -41 0
-40 -41 0
36 -41 42 0
-36 -42 0
41 -42 0
42 40 43 0
-42 -43 0
-40 -43 0
44 45 46 0
-44 -46 0
-45 -46 0
-44 -45 47 0
44 -47 0
45 -47 0
46 47 48 0
-46 -48 0
-47 -48 0
43 -48 49 0
-43 -49 0
48 -49 0
49 47 50 0
-49 -50 0
-47 -50 0
5 50 51 0
-5 -51 0
-50 -51 0
-5 -50 52 0
5 -52 0
50 -52 0
51 52 53 0
-51 -53 0
-52 -53 0
54 55 56 0
-54 -56 0
-55 -56 0
56 -57 58 0
-56 -58 0
57 -58 0
-56 57 59 0
56 -59 0
-57 -59 0
58 59 60 0
-58 -60 0
-59 -60 0
-60 61 62 0
60 -62 0
-61 -62 0
-62 55 63 0
62 -63 0
-55 -63 0
-63 64 65 0
63 -65 0
-64 -65 0
-59 64 66 0
59 -66 0
-64 -66 0
66 -67 68 0
-66 -68 0
67 -68 0
-66 67 69 0
66 -69 0
-67 -69 0
68 69 70 0
-68 -70 0
-69 -70 0
-70 -54 71 0
70 -71 0
54 -71 0
-65 -71 72 0
65 -72 0
71 -72 0
-69 61 73 0
69 -73 0
-61 -73 0
73 -74 75 0
-73 -75 0
74 -75 0
-73 74 76 0
73 -76 0
-74 -76 0
75 76 77 0
-75 -77 0
-76 -77 0
-72 -77 78 0
72 -78 0
77 -78 0
78 76 79 0
-78 -79 0
-76 -79 0
79 -80 81 0
-79 -81 0
80 -81 0
-79 80 82 0
79 -82 0
-80 -82 0
81 82 83 0
-81 -83 0
-82 -83 0
53 -83 84 0
-53 -84 0
83 -84 0
69 -61 85 0
-69 -85 0
61 -85 0
85 73 86 0
-85 -86 0
-73 -86 0
-36 41 87 0
36 -87 0
-41 -87 0
87 42 88 0
-87 -88 0
-42 -88 0
-86 88 89 0
86 -89 0
-88 -89 0
-43 48 90 0
43 -90 0
-48 -90 0
90 49 91 0
-90 -91 0
-49 -91 0
91 -77 92 0
-91 -92 0
77 -92 0
89 92 93 0
-89 -93 0
-92 -93 0
8 -13 94 0
-8 -94 0
13 -94 0
94 -55 95 0
-94 -95 0
55 -95 0
6 7 96 0
-6 -96 0
-7 -96 0
95 96 97 0
-95 -97 0
-96 -97 0
-97 54 98 0
97 -98 0
-54 -98 0
-54 -55 99 0
54 -99 0
55 -99 0
99 56 100 0
-99 -100 0
-56 -100 0
8 13 101 0
-8 -101 0
-13 -101 0
100 101 102 0
-100 -102 0
-101 -102 0
98 102 103 0
-98 -103 0
-102 -103 0
103 14 104 0
-103 -104 0
-14 -104 0
-15 20 105 0
15 -105 0
-20 -105 0
105 21 106 0
-105 -106 0
-21 -106 0
106 -60 107 0
-106 -107 0
60 -107 0
-104 107 108 0
104 -108 0
-107 -108 0
-106 60 109 0
106 -109 0
-60 -109 0
108 109 110 0
-108 -110 0
-109 -110 0
-22 27 111 0
22 -111 0
-27 -111 0
111 28 112 0
-111 -112 0
-28 -112 0
59 -64 113 0
-59 -113 0
64 -113 0
113 66 114 0
-113 -114 0
-66 -114 0
112 -114 115 0
-112 -115 0
114 -115 0
110 115 116 0
-110 -116 0
-115 -116 0
-112 114 117 0
112 -117 0
-114 -117 0
116 117 118 0
-116 -118 0
-117 -118 0
-29 34 119 0
29 -119 0
-34 -119 0
119 35 120 0
-119 -120 0
-35 -120 0
120 -70 121 0
-120 -121 0
70 -121 0
118 121 122 0
-118 -122 0
-121 -122 0
-120 70 123 0
120 -123 0
-70 -123 0
122 123 124 0
-122 -124 0
-123 -124 0
86 -88 125 0
-86 -125 0
88 -125 0
-124 125 126 0
124 -126 0
-125 -126 0
-93 126 127 0
93 -127 0
-126 -127 0
-127 -78 128 0
127 -128 0
78 -128 0
-84 128 129 0
84 -129 0
-128 -129 0
-53 83 130 0
53 -130 0
-83 -130 0
-128 -130 131 0
128 -131 0
130 -131 0
129 131 132 0
-129 -132 0
-131 -132 0
-91 77 133 0
91 -133 0
-77 -133 0
127 133 134 0
-127 -134 0
-133 -134 0
-134 78 135 0
134 -135 0
-78 -135 0
-135 130 136 0
135 -136 0
-130 -136 0
-132 136 137 0
132 -137 0
-136 -137 0
-137 0
